\Problem name: 

Minimize
OBJROW: 8 x(0) + 72 x(1) + 42 x(2) -4 e_p(0) -8 e_p(1) -7 e_p(2) -32 xi_xj(0,1) -28 xi_xj(0,2) -56 xi_xj(1,2)
Subject To
x(1) = 1
x(2) = 1
x(0) = 0
e_s1(0):  -42 x(0) + e_p(0) <= 0
e_s1(1):  -42 x(1) + e_p(1) <= 0
e_s1(2):  -42 x(2) + e_p(2) <= 0
e_s2(0):  e_p(0) - E <= 0
e_s2(1):  e_p(1) - E <= 0
e_s2(2):  e_p(2) - E <= 0
e_s3(0):  -42 x(0) + e_p(0) - E >= -42
e_s3(1):  -42 x(1) + e_p(1) - E >= -42
e_s3(2):  -42 x(2) + e_p(2) - E >= -42
eq26(0):  38 x(0) + v(0) = 42
eq26(1):  34 x(1) + v(1) = 42
eq26(2):  35 x(2) + v(2) = 42
eq27(0):  - v(0) + E <= 0
eq27(1):  - v(1) + E <= 0
eq27(2):  - v(2) + E <= 0
eq28(0):  - y(0) + E >= 0
eq28(1):  - y(1) + E >= 0
eq28(2):  - y(2) + E >= 0
eq29(0):  y(0) + 42 e(0) >= 0
eq29(1):  y(1) + 42 e(1) >= 0
eq29(2):  y(2) + 42 e(2) >= 0
eq30(0):  - v(0) + y(0) <= 0
eq30(1):  - v(1) + y(1) <= 0
eq30(2):  - v(2) + y(2) <= 0
eq31(0):  - v(0) + y(0) -42 e(0) >= -42
eq31(1):  - v(1) + y(1) -42 e(1) >= -42
eq31(2):  - v(2) + y(2) -42 e(2) >= -42
eq32:  e(0) + e(1) + e(2) = 1
xi_xj1(0,1):  - x(1) + xi_xj(0,1) <= 0
xi_xj1(0,2):  - x(2) + xi_xj(0,2) <= 0
xi_xj1(1,2):  - x(2) + xi_xj(1,2) <= 0
xi_xj2(0,1):  - x(0) + xi_xj(0,1) <= 0
xi_xj2(0,2):  - x(0) + xi_xj(0,2) <= 0
xi_xj2(1,2):  - x(1) + xi_xj(1,2) <= 0
xi_xj3(0,1):  x(0) + x(1) - xi_xj(0,1) <= 1
xi_xj3(0,2):  x(0) + x(2) - xi_xj(0,2) <= 1
xi_xj3(1,2):  x(1) + x(2) - xi_xj(1,2) <= 1
Bounds
 0 <= x(0) <= 1
 0 <= x(1) <= 1
 0 <= x(2) <= 1
 0 <= xi_xj(0,0) <= 1
 0 <= xi_xj(1,0) <= 1
 0 <= xi_xj(2,0) <= 1
 0 <= xi_xj(0,1) <= 1
 0 <= xi_xj(1,1) <= 1
 0 <= xi_xj(2,1) <= 1
 0 <= xi_xj(0,2) <= 1
 0 <= xi_xj(1,2) <= 1
 0 <= xi_xj(2,2) <= 1
 0 <= e(0) <= 1
 0 <= e(1) <= 1
 0 <= e(2) <= 1
Integers
x(0) x(1) x(2) v(0) v(1) v(2) e_p(0) e_p(1) e_p(2) xi_xj(0,0) 
xi_xj(1,0) xi_xj(2,0) xi_xj(0,1) xi_xj(1,1) xi_xj(2,1) xi_xj(0,2) xi_xj(1,2) xi_xj(2,2) y(0) y(1) 
y(2) e(0) e(1) e(2) E 
End
